NAME 
ROWS
 N  OBJ
 L  R0      
 E  R1      
 E  R2      
 E  R3      
 E  R4      
 E  R5      
 E  R6      
 E  R7      
 E  R8      
 E  R9      
 E  R10     
COLUMNS
    MARKER    'MARKER'                 'INTORG'
    I0(5)     OBJ       146
    I0(5)     R0        13
    I0(5)     R2        1
    I0(5)     R4        19
    I0(5)     R5        10
    I0(5)     R10       1
    I1(4)     OBJ       121
    I1(4)     R0        97
    I1(4)     R3        2
    I1(4)     R5        14
    I1(4)     R10       1
    I2(6)     OBJ       73
    I2(6)     R0        -166
    I2(6)     R1        12
    I2(6)     R3        5
    I2(6)     R4        7
    I2(6)     R5        -1
    I2(6)     R10       1
    I3(5)     OBJ       6
    I3(5)     R0        -30
    I3(5)     R1        12
    I3(5)     R3        -1
    I3(5)     R4        18
    I3(5)     R10       1
    I4(6)     OBJ       87
    I4(6)     R0        -182
    I4(6)     R1        1
    I4(6)     R2        18
    I4(6)     R3        19
    I4(6)     R4        5
    I4(6)     R10       1
    MARKER    'MARKER'                 'INTEND'
    C5(5)     OBJ       -2
    C5(5)     R0        9
    C5(5)     R1        12
    C5(5)     R5        2
    C5(5)     R7        -1
    C5(5)     R8        11
    C6(7)     OBJ       -3
    C6(7)     R0        3
    C6(7)     R1        9
    C6(7)     R3        12
    C6(7)     R5        18
    C6(7)     R6        16
    C6(7)     R7        2
    C6(7)     R8        12
    C7(8)     OBJ       3
    C7(8)     R0        -4
    C7(8)     R1        13
    C7(8)     R2        15
    C7(8)     R3        19
    C7(8)     R6        9
    C7(8)     R7        7
    C7(8)     R8        10
    C7(8)     R9        12
    C8(7)     OBJ       3
    C8(7)     R0        -2
    C8(7)     R1        10
    C8(7)     R3        3
    C8(7)     R4        12
    C8(7)     R7        18
    C8(7)     R8        17
    C8(7)     R9        10
    C9(7)     OBJ       7
    C9(7)     R0        5
    C9(7)     R1        8
    C9(7)     R4        10
    C9(7)     R5        11
    C9(7)     R7        5
    C9(7)     R8        16
    C9(7)     R9        5
    C10(1)    R1        1
    C11(1)    R2        1
    C12(1)    R3        1
    C13(1)    R4        1
    C14(1)    R5        1
    C15(1)    R6        1
    C16(1)    R7        1
    C17(1)    R8        1
    C18(1)    R9        1
    C19(1)    R10       1
RHS
    RHS1      R0        5.3793103448275858e+01
    RHS1      R1        99
    RHS1      R2        64
    RHS1      R3        77
    RHS1      R4        86
    RHS1      R5        52
    RHS1      R6        82
    RHS1      R7        59
    RHS1      R8        85
    RHS1      R9        64
    RHS1      R10       1
BOUNDS
 UP BND1      I0(5)     1
 UP BND1      I1(4)     1
 UP BND1      I2(6)     1
 UP BND1      I3(5)     1
 UP BND1      I4(6)     1
ENDATA
